c nIsolatedPIs 64
c maxPI 192
p cnf 662 1411
c gate 193 60 156 0
60 -193 0
156 -193 0
-60 -156 193 0
c gate 194 -60 -156 0
-60 -194 0
-156 -194 0
60 156 194 0
c gate 195 59 -194 0
59 -195 0
-194 -195 0
-59 194 195 0
c gate 196 155 195 0
155 -196 0
195 -196 0
-155 -195 196 0
c gate 197 -193 -196 0
-193 -197 0
-196 -197 0
193 196 197 0
c gate 198 57 153 0
57 -198 0
153 -198 0
-57 -153 198 0
c gate 199 58 154 0
58 -199 0
154 -199 0
-58 -154 199 0
c gate 200 -198 -199 0
-198 -200 0
-199 -200 0
198 199 200 0
c gate 201 64 160 0
64 -201 0
160 -201 0
-64 -160 201 0
c gate 202 63 159 0
63 -202 0
159 -202 0
-63 -159 202 0
c gate 203 -201 -202 0
-201 -203 0
-202 -203 0
201 202 203 0
c gate 204 200 203 0
200 -204 0
203 -204 0
-200 -203 204 0
c gate 205 -63 -159 0
-63 -205 0
-159 -205 0
63 159 205 0
c gate 206 -62 -158 0
-62 -206 0
-158 -206 0
62 158 206 0
c gate 207 -205 -206 0
-205 -207 0
-206 -207 0
205 206 207 0
c gate 208 62 158 0
62 -208 0
158 -208 0
-62 -158 208 0
c gate 209 61 157 0
61 -209 0
157 -209 0
-61 -157 209 0
c gate 210 -208 -209 0
-208 -210 0
-209 -210 0
208 209 210 0
c gate 211 207 210 0
207 -211 0
210 -211 0
-207 -210 211 0
c gate 212 204 211 0
204 -212 0
211 -212 0
-204 -211 212 0
c gate 213 155 -194 0
155 -213 0
-194 -213 0
-155 194 213 0
c gate 214 -195 -213 0
-195 -214 0
-213 -214 0
195 213 214 0
c gate 215 -61 -157 0
-61 -215 0
-157 -215 0
61 157 215 0
c gate 216 -58 -154 0
-58 -216 0
-154 -216 0
58 154 216 0
c gate 217 -215 -216 0
-215 -217 0
-216 -217 0
215 216 217 0
c gate 218 -64 -160 0
-64 -218 0
-160 -218 0
64 160 218 0
c gate 219 -57 -153 0
-57 -219 0
-153 -219 0
57 153 219 0
c gate 220 -218 -219 0
-218 -220 0
-219 -220 0
218 219 220 0
c gate 221 217 220 0
217 -221 0
220 -221 0
-217 -220 221 0
c gate 222 -214 221 0
-214 -222 0
221 -222 0
214 -221 222 0
c gate 223 212 222 0
212 -223 0
222 -223 0
-212 -222 223 0
c gate 224 197 223 0
197 -224 0
223 -224 0
-197 -223 224 0
c gate 225 -56 -152 0
-56 -225 0
-152 -225 0
56 152 225 0
c gate 226 56 152 0
56 -226 0
152 -226 0
-56 -152 226 0
c gate 227 55 151 0
55 -227 0
151 -227 0
-55 -151 227 0
c gate 228 -226 -227 0
-226 -228 0
-227 -228 0
226 227 228 0
c gate 229 54 150 0
54 -229 0
150 -229 0
-54 -150 229 0
c gate 230 53 149 0
53 -230 0
149 -230 0
-53 -149 230 0
c gate 231 -229 -230 0
-229 -231 0
-230 -231 0
229 230 231 0
c gate 232 -55 -151 0
-55 -232 0
-151 -232 0
55 151 232 0
c gate 233 -54 -150 0
-54 -233 0
-150 -233 0
54 150 233 0
c gate 234 -232 -233 0
-232 -234 0
-233 -234 0
232 233 234 0
c gate 235 -231 234 0
-231 -235 0
234 -235 0
231 -234 235 0
c gate 236 228 -235 0
228 -236 0
-235 -236 0
-228 235 236 0
c gate 237 -225 -236 0
-225 -237 0
-236 -237 0
225 236 237 0
c gate 238 224 237 0
224 -238 0
237 -238 0
-224 -237 238 0
c gate 239 -200 -216 0
-200 -239 0
-216 -239 0
200 216 239 0
c gate 240 -214 239 0
-214 -240 0
239 -240 0
214 -239 240 0
c gate 241 197 -240 0
197 -241 0
-240 -241 0
-197 240 241 0
c gate 242 -215 -241 0
-215 -242 0
-241 -242 0
215 241 242 0
c gate 243 210 -242 0
210 -243 0
-242 -243 0
-210 242 243 0
c gate 244 207 -243 0
207 -244 0
-243 -244 0
-207 243 244 0
c gate 245 203 -244 0
203 -245 0
-244 -245 0
-203 244 245 0
c gate 246 -218 -245 0
-218 -246 0
-245 -246 0
218 245 246 0
c gate 247 -238 -246 0
-238 -247 0
-246 -247 0
238 246 247 0
c gate 248 52 148 0
52 -248 0
148 -248 0
-52 -148 248 0
c gate 249 -52 -148 0
-52 -249 0
-148 -249 0
52 148 249 0
c gate 250 51 147 0
51 -250 0
147 -250 0
-51 -147 250 0
c gate 251 -249 250 0
-249 -251 0
250 -251 0
249 -250 251 0
c gate 252 -248 -251 0
-248 -252 0
-251 -252 0
248 251 252 0
c gate 253 -51 -147 0
-51 -253 0
-147 -253 0
51 147 253 0
c gate 254 -249 -253 0
-249 -254 0
-253 -254 0
249 253 254 0
c gate 255 252 254 0
252 -255 0
254 -255 0
-252 -254 255 0
c gate 256 -53 -149 0
-53 -256 0
-149 -256 0
53 149 256 0
c gate 257 -225 -256 0
-225 -257 0
-256 -257 0
225 256 257 0
c gate 258 228 257 0
228 -258 0
257 -258 0
-228 -257 258 0
c gate 259 231 234 0
231 -259 0
234 -259 0
-231 -234 259 0
c gate 260 258 259 0
258 -260 0
259 -260 0
-258 -259 260 0
c gate 261 49 145 0
49 -261 0
145 -261 0
-49 -145 261 0
c gate 262 50 146 0
50 -262 0
146 -262 0
-50 -146 262 0
c gate 263 -261 -262 0
-261 -263 0
-262 -263 0
261 262 263 0
c gate 264 -50 -146 0
-50 -264 0
-146 -264 0
50 146 264 0
c gate 265 -49 -145 0
-49 -265 0
-145 -265 0
49 145 265 0
c gate 266 -264 -265 0
-264 -266 0
-265 -266 0
264 265 266 0
c gate 267 263 266 0
263 -267 0
266 -267 0
-263 -266 267 0
c gate 268 260 267 0
260 -268 0
267 -268 0
-260 -267 268 0
c gate 269 255 268 0
255 -269 0
268 -269 0
-255 -268 269 0
c gate 270 224 269 0
224 -270 0
269 -270 0
-224 -269 270 0
c gate 271 48 144 0
48 -271 0
144 -271 0
-48 -144 271 0
c gate 272 -48 -144 0
-48 -272 0
-144 -272 0
48 144 272 0
c gate 273 47 143 0
47 -273 0
143 -273 0
-47 -143 273 0
c gate 274 -272 273 0
-272 -274 0
273 -274 0
272 -273 274 0
c gate 275 -271 -274 0
-271 -275 0
-274 -275 0
271 274 275 0
c gate 276 -46 -142 0
-46 -276 0
-142 -276 0
46 142 276 0
c gate 277 -47 -143 0
-47 -277 0
-143 -277 0
47 143 277 0
c gate 278 -272 -277 0
-272 -278 0
-277 -278 0
272 277 278 0
c gate 279 -276 278 0
-276 -279 0
278 -279 0
276 -278 279 0
c gate 280 275 279 0
275 -280 0
279 -280 0
-275 -279 280 0
c gate 281 -45 -141 0
-45 -281 0
-141 -281 0
45 141 281 0
c gate 282 46 142 0
46 -282 0
142 -282 0
-46 -142 282 0
c gate 283 45 141 0
45 -283 0
141 -283 0
-45 -141 283 0
c gate 284 -282 -283 0
-282 -284 0
-283 -284 0
282 283 284 0
c gate 285 -281 284 0
-281 -285 0
284 -285 0
281 -284 285 0
c gate 286 280 285 0
280 -286 0
285 -286 0
-280 -285 286 0
c gate 287 -43 -139 0
-43 -287 0
-139 -287 0
43 139 287 0
c gate 288 -42 -138 0
-42 -288 0
-138 -288 0
42 138 288 0
c gate 289 -287 -288 0
-287 -289 0
-288 -289 0
287 288 289 0
c gate 290 -44 -140 0
-44 -290 0
-140 -290 0
44 140 290 0
c gate 291 -41 -137 0
-41 -291 0
-137 -291 0
41 137 291 0
c gate 292 -290 -291 0
-290 -292 0
-291 -292 0
290 291 292 0
c gate 293 289 292 0
289 -293 0
292 -293 0
-289 -292 293 0
c gate 294 44 140 0
44 -294 0
140 -294 0
-44 -140 294 0
c gate 295 43 139 0
43 -295 0
139 -295 0
-43 -139 295 0
c gate 296 -294 -295 0
-294 -296 0
-295 -296 0
294 295 296 0
c gate 297 42 138 0
42 -297 0
138 -297 0
-42 -138 297 0
c gate 298 41 137 0
41 -298 0
137 -298 0
-41 -137 298 0
c gate 299 -297 -298 0
-297 -299 0
-298 -299 0
297 298 299 0
c gate 300 296 299 0
296 -300 0
299 -300 0
-296 -299 300 0
c gate 301 293 300 0
293 -301 0
300 -301 0
-293 -300 301 0
c gate 302 286 301 0
286 -302 0
301 -302 0
-286 -301 302 0
c gate 303 2 98 0
2 -303 0
98 -303 0
-2 -98 303 0
c gate 304 1 97 0
1 -304 0
97 -304 0
-1 -97 304 0
c gate 305 -303 -304 0
-303 -305 0
-304 -305 0
303 304 305 0
c gate 306 -3 -99 0
-3 -306 0
-99 -306 0
3 99 306 0
c gate 307 -2 -98 0
-2 -307 0
-98 -307 0
2 98 307 0
c gate 308 -306 -307 0
-306 -308 0
-307 -308 0
306 307 308 0
c gate 309 -305 308 0
-305 -309 0
308 -309 0
305 -308 309 0
c gate 310 4 100 0
4 -310 0
100 -310 0
-4 -100 310 0
c gate 311 3 99 0
3 -311 0
99 -311 0
-3 -99 311 0
c gate 312 -310 -311 0
-310 -312 0
-311 -312 0
310 311 312 0
c gate 313 -309 312 0
-309 -313 0
312 -313 0
309 -312 313 0
c gate 314 -4 -100 0
-4 -314 0
-100 -314 0
4 100 314 0
c gate 315 -5 -101 0
-5 -315 0
-101 -315 0
5 101 315 0
c gate 316 -314 -315 0
-314 -316 0
-315 -316 0
314 315 316 0
c gate 317 -313 316 0
-313 -317 0
316 -317 0
313 -316 317 0
c gate 318 6 102 0
6 -318 0
102 -318 0
-6 -102 318 0
c gate 319 5 101 0
5 -319 0
101 -319 0
-5 -101 319 0
c gate 320 -318 -319 0
-318 -320 0
-319 -320 0
318 319 320 0
c gate 321 -317 320 0
-317 -321 0
320 -321 0
317 -320 321 0
c gate 322 -7 -103 0
-7 -322 0
-103 -322 0
7 103 322 0
c gate 323 -6 -102 0
-6 -323 0
-102 -323 0
6 102 323 0
c gate 324 -322 -323 0
-322 -324 0
-323 -324 0
322 323 324 0
c gate 325 -321 324 0
-321 -325 0
324 -325 0
321 -324 325 0
c gate 326 8 104 0
8 -326 0
104 -326 0
-8 -104 326 0
c gate 327 7 103 0
7 -327 0
103 -327 0
-7 -103 327 0
c gate 328 -326 -327 0
-326 -328 0
-327 -328 0
326 327 328 0
c gate 329 -325 328 0
-325 -329 0
328 -329 0
325 -328 329 0
c gate 330 -9 -105 0
-9 -330 0
-105 -330 0
9 105 330 0
c gate 331 -8 -104 0
-8 -331 0
-104 -331 0
8 104 331 0
c gate 332 -330 -331 0
-330 -332 0
-331 -332 0
330 331 332 0
c gate 333 -329 332 0
-329 -333 0
332 -333 0
329 -332 333 0
c gate 334 10 106 0
10 -334 0
106 -334 0
-10 -106 334 0
c gate 335 9 105 0
9 -335 0
105 -335 0
-9 -105 335 0
c gate 336 -334 -335 0
-334 -336 0
-335 -336 0
334 335 336 0
c gate 337 -333 336 0
-333 -337 0
336 -337 0
333 -336 337 0
c gate 338 -10 -106 0
-10 -338 0
-106 -338 0
10 106 338 0
c gate 339 -12 -108 0
-12 -339 0
-108 -339 0
12 108 339 0
c gate 340 -11 -107 0
-11 -340 0
-107 -340 0
11 107 340 0
c gate 341 -339 -340 0
-339 -341 0
-340 -341 0
339 340 341 0
c gate 342 -338 341 0
-338 -342 0
341 -342 0
338 -341 342 0
c gate 343 -337 342 0
-337 -343 0
342 -343 0
337 -342 343 0
c gate 344 12 108 0
12 -344 0
108 -344 0
-12 -108 344 0
c gate 345 11 107 0
11 -345 0
107 -345 0
-11 -107 345 0
c gate 346 -339 345 0
-339 -346 0
345 -346 0
339 -345 346 0
c gate 347 -344 -346 0
-344 -347 0
-346 -347 0
344 346 347 0
c gate 348 -343 347 0
-343 -348 0
347 -348 0
343 -347 348 0
c gate 349 -14 -110 0
-14 -349 0
-110 -349 0
14 110 349 0
c gate 350 -15 -111 0
-15 -350 0
-111 -350 0
15 111 350 0
c gate 351 -349 -350 0
-349 -351 0
-350 -351 0
349 350 351 0
c gate 352 14 110 0
14 -352 0
110 -352 0
-14 -110 352 0
c gate 353 13 109 0
13 -353 0
109 -353 0
-13 -109 353 0
c gate 354 -352 -353 0
-352 -354 0
-353 -354 0
352 353 354 0
c gate 355 -13 -109 0
-13 -355 0
-109 -355 0
13 109 355 0
c gate 356 354 -355 0
354 -356 0
-355 -356 0
-354 355 356 0
c gate 357 351 356 0
351 -357 0
356 -357 0
-351 -356 357 0
c gate 358 -348 357 0
-348 -358 0
357 -358 0
348 -357 358 0
c gate 359 351 -354 0
351 -359 0
-354 -359 0
-351 354 359 0
c gate 360 15 111 0
15 -360 0
111 -360 0
-15 -111 360 0
c gate 361 16 112 0
16 -361 0
112 -361 0
-16 -112 361 0
c gate 362 -360 -361 0
-360 -362 0
-361 -362 0
360 361 362 0
c gate 363 -359 362 0
-359 -363 0
362 -363 0
359 -362 363 0
c gate 364 -358 363 0
-358 -364 0
363 -364 0
358 -363 364 0
c gate 365 -20 -116 0
-20 -365 0
-116 -365 0
20 116 365 0
c gate 366 19 -365 0
19 -366 0
-365 -366 0
-19 365 366 0
c gate 367 115 -365 0
115 -367 0
-365 -367 0
-115 365 367 0
c gate 368 -366 -367 0
-366 -368 0
-367 -368 0
366 367 368 0
c gate 369 28 124 0
28 -369 0
124 -369 0
-28 -124 369 0
c gate 370 -28 -124 0
-28 -370 0
-124 -370 0
28 124 370 0
c gate 371 27 123 0
27 -371 0
123 -371 0
-27 -123 371 0
c gate 372 -370 371 0
-370 -372 0
371 -372 0
370 -371 372 0
c gate 373 -369 -372 0
-369 -373 0
-372 -373 0
369 372 373 0
c gate 374 -27 -123 0
-27 -374 0
-123 -374 0
27 123 374 0
c gate 375 -26 -122 0
-26 -375 0
-122 -375 0
26 122 375 0
c gate 376 -370 -375 0
-370 -376 0
-375 -376 0
370 375 376 0
c gate 377 -374 376 0
-374 -377 0
376 -377 0
374 -376 377 0
c gate 378 373 377 0
373 -378 0
377 -378 0
-373 -377 378 0
c gate 379 -368 378 0
-368 -379 0
378 -379 0
368 -378 379 0
c gate 380 -23 -119 0
-23 -380 0
-119 -380 0
23 119 380 0
c gate 381 -22 -118 0
-22 -381 0
-118 -381 0
22 118 381 0
c gate 382 -380 -381 0
-380 -382 0
-381 -382 0
380 381 382 0
c gate 383 24 120 0
24 -383 0
120 -383 0
-24 -120 383 0
c gate 384 23 119 0
23 -384 0
119 -384 0
-23 -119 384 0
c gate 385 -383 -384 0
-383 -385 0
-384 -385 0
383 384 385 0
c gate 386 382 385 0
382 -386 0
385 -386 0
-382 -385 386 0
c gate 387 22 118 0
22 -387 0
118 -387 0
-22 -118 387 0
c gate 388 21 117 0
21 -388 0
117 -388 0
-21 -117 388 0
c gate 389 -387 -388 0
-387 -389 0
-388 -389 0
387 388 389 0
c gate 390 -25 -121 0
-25 -390 0
-121 -390 0
25 121 390 0
c gate 391 -24 -120 0
-24 -391 0
-120 -391 0
24 120 391 0
c gate 392 -390 -391 0
-390 -392 0
-391 -392 0
390 391 392 0
c gate 393 389 392 0
389 -393 0
392 -393 0
-389 -392 393 0
c gate 394 386 393 0
386 -394 0
393 -394 0
-386 -393 394 0
c gate 395 -16 -112 0
-16 -395 0
-112 -395 0
16 112 395 0
c gate 396 -18 -114 0
-18 -396 0
-114 -396 0
18 114 396 0
c gate 397 -395 -396 0
-395 -397 0
-396 -397 0
395 396 397 0
c gate 398 -17 -113 0
-17 -398 0
-113 -398 0
17 113 398 0
c gate 399 -21 -117 0
-21 -399 0
-117 -399 0
21 117 399 0
c gate 400 -398 -399 0
-398 -400 0
-399 -400 0
398 399 400 0
c gate 401 397 400 0
397 -401 0
400 -401 0
-397 -400 401 0
c gate 402 17 113 0
17 -402 0
113 -402 0
-17 -113 402 0
c gate 403 18 114 0
18 -403 0
114 -403 0
-18 -114 403 0
c gate 404 -402 -403 0
-402 -404 0
-403 -404 0
402 403 404 0
c gate 405 25 121 0
25 -405 0
121 -405 0
-25 -121 405 0
c gate 406 26 122 0
26 -406 0
122 -406 0
-26 -122 406 0
c gate 407 -405 -406 0
-405 -407 0
-406 -407 0
405 406 407 0
c gate 408 404 407 0
404 -408 0
407 -408 0
-404 -407 408 0
c gate 409 401 408 0
401 -409 0
408 -409 0
-401 -408 409 0
c gate 410 394 409 0
394 -410 0
409 -410 0
-394 -409 410 0
c gate 411 30 126 0
30 -411 0
126 -411 0
-30 -126 411 0
c gate 412 29 125 0
29 -412 0
125 -412 0
-29 -125 412 0
c gate 413 -411 -412 0
-411 -413 0
-412 -413 0
411 412 413 0
c gate 414 -29 -125 0
-29 -414 0
-125 -414 0
29 125 414 0
c gate 415 -32 -128 0
-32 -415 0
-128 -415 0
32 128 415 0
c gate 416 -414 -415 0
-414 -416 0
-415 -416 0
414 415 416 0
c gate 417 413 416 0
413 -417 0
416 -417 0
-413 -416 417 0
c gate 418 -31 -127 0
-31 -418 0
-127 -418 0
31 127 418 0
c gate 419 -30 -126 0
-30 -419 0
-126 -419 0
30 126 419 0
c gate 420 -418 -419 0
-418 -420 0
-419 -420 0
418 419 420 0
c gate 421 32 128 0
32 -421 0
128 -421 0
-32 -128 421 0
c gate 422 31 127 0
31 -422 0
127 -422 0
-31 -127 422 0
c gate 423 -421 -422 0
-421 -423 0
-422 -423 0
421 422 423 0
c gate 424 420 423 0
420 -424 0
423 -424 0
-420 -423 424 0
c gate 425 417 424 0
417 -425 0
424 -425 0
-417 -424 425 0
c gate 426 20 116 0
20 -426 0
116 -426 0
-20 -116 426 0
c gate 427 115 366 0
115 -427 0
366 -427 0
-115 -366 427 0
c gate 428 -426 -427 0
-426 -428 0
-427 -428 0
426 427 428 0
c gate 429 425 428 0
425 -429 0
428 -429 0
-425 -428 429 0
c gate 430 410 429 0
410 -430 0
429 -430 0
-410 -429 430 0
c gate 431 379 430 0
379 -431 0
430 -431 0
-379 -430 431 0
c gate 432 -364 431 0
-364 -432 0
431 -432 0
364 -431 432 0
c gate 433 -396 -404 0
-396 -433 0
-404 -433 0
396 404 433 0
c gate 434 -368 433 0
-368 -434 0
433 -434 0
368 -433 434 0
c gate 435 428 -434 0
428 -435 0
-434 -435 0
-428 434 435 0
c gate 436 -399 -435 0
-399 -436 0
-435 -436 0
399 435 436 0
c gate 437 389 -436 0
389 -437 0
-436 -437 0
-389 436 437 0
c gate 438 382 -437 0
382 -438 0
-437 -438 0
-382 437 438 0
c gate 439 385 -438 0
385 -439 0
-438 -439 0
-385 438 439 0
c gate 440 392 -439 0
392 -440 0
-439 -440 0
-392 439 440 0
c gate 441 407 -440 0
407 -441 0
-440 -441 0
-407 440 441 0
c gate 442 377 -441 0
377 -442 0
-441 -442 0
-377 441 442 0
c gate 443 373 -442 0
373 -443 0
-442 -443 0
-373 442 443 0
c gate 444 425 -443 0
425 -444 0
-443 -444 0
-425 443 444 0
c gate 445 -413 420 0
-413 -445 0
420 -445 0
413 -420 445 0
c gate 446 423 -445 0
423 -446 0
-445 -446 0
-423 445 446 0
c gate 447 -415 -446 0
-415 -447 0
-446 -447 0
415 446 447 0
c gate 448 -444 -447 0
-444 -448 0
-447 -448 0
444 447 448 0
c gate 449 -432 448 0
-432 -449 0
448 -449 0
432 -448 449 0
c gate 450 36 132 0
36 -450 0
132 -450 0
-36 -132 450 0
c gate 451 -36 -132 0
-36 -451 0
-132 -451 0
36 132 451 0
c gate 452 35 -451 0
35 -452 0
-451 -452 0
-35 451 452 0
c gate 453 131 452 0
131 -453 0
452 -453 0
-131 -452 453 0
c gate 454 -450 -453 0
-450 -454 0
-453 -454 0
450 453 454 0
c gate 455 33 129 0
33 -455 0
129 -455 0
-33 -129 455 0
c gate 456 34 130 0
34 -456 0
130 -456 0
-34 -130 456 0
c gate 457 -455 -456 0
-455 -457 0
-456 -457 0
455 456 457 0
c gate 458 40 136 0
40 -458 0
136 -458 0
-40 -136 458 0
c gate 459 39 135 0
39 -459 0
135 -459 0
-39 -135 459 0
c gate 460 -458 -459 0
-458 -460 0
-459 -460 0
458 459 460 0
c gate 461 457 460 0
457 -461 0
460 -461 0
-457 -460 461 0
c gate 462 -39 -135 0
-39 -462 0
-135 -462 0
39 135 462 0
c gate 463 -38 -134 0
-38 -463 0
-134 -463 0
38 134 463 0
c gate 464 -462 -463 0
-462 -464 0
-463 -464 0
462 463 464 0
c gate 465 38 134 0
38 -465 0
134 -465 0
-38 -134 465 0
c gate 466 37 133 0
37 -466 0
133 -466 0
-37 -133 466 0
c gate 467 -465 -466 0
-465 -467 0
-466 -467 0
465 466 467 0
c gate 468 464 467 0
464 -468 0
467 -468 0
-464 -467 468 0
c gate 469 461 468 0
461 -469 0
468 -469 0
-461 -468 469 0
c gate 470 131 -451 0
131 -470 0
-451 -470 0
-131 451 470 0
c gate 471 -452 -470 0
-452 -471 0
-470 -471 0
452 470 471 0
c gate 472 -37 -133 0
-37 -472 0
-133 -472 0
37 133 472 0
c gate 473 -34 -130 0
-34 -473 0
-130 -473 0
34 130 473 0
c gate 474 -472 -473 0
-472 -474 0
-473 -474 0
472 473 474 0
c gate 475 -40 -136 0
-40 -475 0
-136 -475 0
40 136 475 0
c gate 476 -33 -129 0
-33 -476 0
-129 -476 0
33 129 476 0
c gate 477 -475 -476 0
-475 -477 0
-476 -477 0
475 476 477 0
c gate 478 474 477 0
474 -478 0
477 -478 0
-474 -477 478 0
c gate 479 -471 478 0
-471 -479 0
478 -479 0
471 -478 479 0
c gate 480 469 479 0
469 -480 0
479 -480 0
-469 -479 480 0
c gate 481 454 480 0
454 -481 0
480 -481 0
-454 -480 481 0
c gate 482 -449 481 0
-449 -482 0
481 -482 0
449 -481 482 0
c gate 483 -457 -473 0
-457 -483 0
-473 -483 0
457 473 483 0
c gate 484 -471 483 0
-471 -484 0
483 -484 0
471 -483 484 0
c gate 485 454 -484 0
454 -485 0
-484 -485 0
-454 484 485 0
c gate 486 -472 -485 0
-472 -486 0
-485 -486 0
472 485 486 0
c gate 487 467 -486 0
467 -487 0
-486 -487 0
-467 486 487 0
c gate 488 464 -487 0
464 -488 0
-487 -488 0
-464 487 488 0
c gate 489 460 -488 0
460 -489 0
-488 -489 0
-460 488 489 0
c gate 490 -475 -489 0
-475 -490 0
-489 -490 0
475 489 490 0
c gate 491 -482 -490 0
-482 -491 0
-490 -491 0
482 490 491 0
c gate 492 302 -491 0
302 -492 0
-491 -492 0
-302 491 492 0
c gate 493 289 -299 0
289 -493 0
-299 -493 0
-289 299 493 0
c gate 494 296 -493 0
296 -494 0
-493 -494 0
-296 493 494 0
c gate 495 -290 -494 0
-290 -495 0
-494 -495 0
290 494 495 0
c gate 496 286 495 0
286 -496 0
495 -496 0
-286 -495 496 0
c gate 497 280 -284 0
280 -497 0
-284 -497 0
-280 284 497 0
c gate 498 275 -497 0
275 -498 0
-497 -498 0
-275 497 498 0
c gate 499 -496 498 0
-496 -499 0
498 -499 0
496 -498 499 0
c gate 500 -492 499 0
-492 -500 0
499 -500 0
492 -499 500 0
c gate 501 270 -500 0
270 -501 0
-500 -501 0
-270 500 501 0
c gate 502 -263 -264 0
-263 -502 0
-264 -502 0
263 264 502 0
c gate 503 255 502 0
255 -503 0
502 -503 0
-255 -502 503 0
c gate 504 252 -503 0
252 -504 0
-503 -504 0
-252 503 504 0
c gate 505 260 -504 0
260 -505 0
-504 -505 0
-260 504 505 0
c gate 506 -237 -505 0
-237 -506 0
-505 -506 0
237 505 506 0
c gate 507 224 -506 0
224 -507 0
-506 -507 0
-224 506 507 0
c gate 508 -246 -507 0
-246 -508 0
-507 -508 0
246 507 508 0
c gate 509 -501 508 0
-501 -509 0
508 -509 0
501 -508 509 0
c gate 510 -247 -509 0
-247 -510 0
-509 -510 0
247 509 510 0
c gate 511 -67 -163 0
-67 -511 0
-163 -511 0
67 163 511 0
c gate 512 -68 -164 0
-68 -512 0
-164 -512 0
68 164 512 0
c gate 513 -66 -162 0
-66 -513 0
-162 -513 0
66 162 513 0
c gate 514 -512 -513 0
-512 -514 0
-513 -514 0
512 513 514 0
c gate 515 -511 514 0
-511 -515 0
514 -515 0
511 -514 515 0
c gate 516 68 164 0
68 -516 0
164 -516 0
-68 -164 516 0
c gate 517 67 163 0
67 -517 0
163 -517 0
-67 -163 517 0
c gate 518 -512 517 0
-512 -518 0
517 -518 0
512 -517 518 0
c gate 519 -516 -518 0
-516 -519 0
-518 -519 0
516 518 519 0
c gate 520 515 519 0
515 -520 0
519 -520 0
-515 -519 520 0
c gate 521 -75 -171 0
-75 -521 0
-171 -521 0
75 171 521 0
c gate 522 -74 -170 0
-74 -522 0
-170 -522 0
74 170 522 0
c gate 523 -76 -172 0
-76 -523 0
-172 -523 0
76 172 523 0
c gate 524 -522 -523 0
-522 -524 0
-523 -524 0
522 523 524 0
c gate 525 -521 524 0
-521 -525 0
524 -525 0
521 -524 525 0
c gate 526 76 172 0
76 -526 0
172 -526 0
-76 -172 526 0
c gate 527 75 171 0
75 -527 0
171 -527 0
-75 -171 527 0
c gate 528 -523 527 0
-523 -528 0
527 -528 0
523 -527 528 0
c gate 529 -526 -528 0
-526 -529 0
-528 -529 0
526 528 529 0
c gate 530 525 529 0
525 -530 0
529 -530 0
-525 -529 530 0
c gate 531 520 530 0
520 -531 0
530 -531 0
-520 -530 531 0
c gate 532 66 162 0
66 -532 0
162 -532 0
-66 -162 532 0
c gate 533 65 161 0
65 -533 0
161 -533 0
-65 -161 533 0
c gate 534 -532 -533 0
-532 -534 0
-533 -534 0
532 533 534 0
c gate 535 -71 -167 0
-71 -535 0
-167 -535 0
71 167 535 0
c gate 536 -70 -166 0
-70 -536 0
-166 -536 0
70 166 536 0
c gate 537 -535 -536 0
-535 -537 0
-536 -537 0
535 536 537 0
c gate 538 70 166 0
70 -538 0
166 -538 0
-70 -166 538 0
c gate 539 69 165 0
69 -539 0
165 -539 0
-69 -165 539 0
c gate 540 -538 -539 0
-538 -540 0
-539 -540 0
538 539 540 0
c gate 541 537 540 0
537 -541 0
540 -541 0
-537 -540 541 0
c gate 542 534 541 0
534 -542 0
541 -542 0
-534 -541 542 0
c gate 543 73 169 0
73 -543 0
169 -543 0
-73 -169 543 0
c gate 544 74 170 0
74 -544 0
170 -544 0
-74 -170 544 0
c gate 545 -543 -544 0
-543 -545 0
-544 -545 0
543 544 545 0
c gate 546 -69 -165 0
-69 -546 0
-165 -546 0
69 165 546 0
c gate 547 -65 -161 0
-65 -547 0
-161 -547 0
65 161 547 0
c gate 548 -546 -547 0
-546 -548 0
-547 -548 0
546 547 548 0
c gate 549 545 548 0
545 -549 0
548 -549 0
-545 -548 549 0
c gate 550 -72 -168 0
-72 -550 0
-168 -550 0
72 168 550 0
c gate 551 -73 -169 0
-73 -551 0
-169 -551 0
73 169 551 0
c gate 552 -550 -551 0
-550 -552 0
-551 -552 0
550 551 552 0
c gate 553 72 168 0
72 -553 0
168 -553 0
-72 -168 553 0
c gate 554 71 167 0
71 -554 0
167 -554 0
-71 -167 554 0
c gate 555 -553 -554 0
-553 -555 0
-554 -555 0
553 554 555 0
c gate 556 552 555 0
552 -556 0
555 -556 0
-552 -555 556 0
c gate 557 549 556 0
549 -557 0
556 -557 0
-549 -556 557 0
c gate 558 542 557 0
542 -558 0
557 -558 0
-542 -557 558 0
c gate 559 531 558 0
531 -559 0
558 -559 0
-531 -558 559 0
c gate 560 510 559 0
510 -560 0
559 -560 0
-510 -559 560 0
c gate 561 515 -534 0
515 -561 0
-534 -561 0
-515 534 561 0
c gate 562 519 -561 0
519 -562 0
-561 -562 0
-519 561 562 0
c gate 563 -546 -562 0
-546 -563 0
-562 -563 0
546 562 563 0
c gate 564 540 -563 0
540 -564 0
-563 -564 0
-540 563 564 0
c gate 565 537 -564 0
537 -565 0
-564 -565 0
-537 564 565 0
c gate 566 555 -565 0
555 -566 0
-565 -566 0
-555 565 566 0
c gate 567 552 -566 0
552 -567 0
-566 -567 0
-552 566 567 0
c gate 568 545 -567 0
545 -568 0
-567 -568 0
-545 567 568 0
c gate 569 525 -568 0
525 -569 0
-568 -569 0
-525 568 569 0
c gate 570 529 -569 0
529 -570 0
-569 -570 0
-529 569 570 0
c gate 571 -560 570 0
-560 -571 0
570 -571 0
560 -570 571 0
c gate 572 78 174 0
78 -572 0
174 -572 0
-78 -174 572 0
c gate 573 77 173 0
77 -573 0
173 -573 0
-77 -173 573 0
c gate 574 -572 -573 0
-572 -574 0
-573 -574 0
572 573 574 0
c gate 575 -79 -175 0
-79 -575 0
-175 -575 0
79 175 575 0
c gate 576 -78 -174 0
-78 -576 0
-174 -576 0
78 174 576 0
c gate 577 -575 -576 0
-575 -577 0
-576 -577 0
575 576 577 0
c gate 578 -77 -173 0
-77 -578 0
-173 -578 0
77 173 578 0
c gate 579 577 -578 0
577 -579 0
-578 -579 0
-577 578 579 0
c gate 580 574 579 0
574 -580 0
579 -580 0
-574 -579 580 0
c gate 581 -571 580 0
-571 -581 0
580 -581 0
571 -580 581 0
c gate 582 -574 577 0
-574 -582 0
577 -582 0
574 -577 582 0
c gate 583 79 175 0
79 -583 0
175 -583 0
-79 -175 583 0
c gate 584 80 176 0
80 -584 0
176 -584 0
-80 -176 584 0
c gate 585 -583 -584 0
-583 -585 0
-584 -585 0
583 584 585 0
c gate 586 -582 585 0
-582 -586 0
585 -586 0
582 -585 586 0
c gate 587 -581 586 0
-581 -587 0
586 -587 0
581 -586 587 0
c gate 588 -88 -184 0
-88 -588 0
-184 -588 0
88 184 588 0
c gate 589 88 184 0
88 -589 0
184 -589 0
-88 -184 589 0
c gate 590 87 183 0
87 -590 0
183 -590 0
-87 -183 590 0
c gate 591 -589 -590 0
-589 -591 0
-590 -591 0
589 590 591 0
c gate 592 -87 -183 0
-87 -592 0
-183 -592 0
87 183 592 0
c gate 593 -86 -182 0
-86 -593 0
-182 -593 0
86 182 593 0
c gate 594 -592 -593 0
-592 -594 0
-593 -594 0
592 593 594 0
c gate 595 86 182 0
86 -595 0
182 -595 0
-86 -182 595 0
c gate 596 85 181 0
85 -596 0
181 -596 0
-85 -181 596 0
c gate 597 -595 -596 0
-595 -597 0
-596 -597 0
595 596 597 0
c gate 598 -85 -181 0
-85 -598 0
-181 -598 0
85 181 598 0
c gate 599 84 180 0
84 -599 0
180 -599 0
-84 -180 599 0
c gate 600 -84 -180 0
-84 -600 0
-180 -600 0
84 180 600 0
c gate 601 83 179 0
83 -601 0
179 -601 0
-83 -179 601 0
c gate 602 -600 601 0
-600 -602 0
601 -602 0
600 -601 602 0
c gate 603 -599 -602 0
-599 -603 0
-602 -603 0
599 602 603 0
c gate 604 -83 -179 0
-83 -604 0
-179 -604 0
83 179 604 0
c gate 605 -82 -178 0
-82 -605 0
-178 -605 0
82 178 605 0
c gate 606 -600 -605 0
-600 -606 0
-605 -606 0
600 605 606 0
c gate 607 -604 606 0
-604 -607 0
606 -607 0
604 -606 607 0
c gate 608 82 178 0
82 -608 0
178 -608 0
-82 -178 608 0
c gate 609 81 177 0
81 -609 0
177 -609 0
-81 -177 609 0
c gate 610 -608 -609 0
-608 -610 0
-609 -610 0
608 609 610 0
c gate 611 607 -610 0
607 -611 0
-610 -611 0
-607 610 611 0
c gate 612 603 -611 0
603 -612 0
-611 -612 0
-603 611 612 0
c gate 613 -598 -612 0
-598 -613 0
-612 -613 0
598 612 613 0
c gate 614 597 -613 0
597 -614 0
-613 -614 0
-597 613 614 0
c gate 615 594 -614 0
594 -615 0
-614 -615 0
-594 614 615 0
c gate 616 591 -615 0
591 -616 0
-615 -616 0
-591 615 616 0
c gate 617 -588 -616 0
-588 -617 0
-616 -617 0
588 616 617 0
c gate 618 95 191 0
95 -618 0
191 -618 0
-95 -191 618 0
c gate 619 -91 -187 0
-91 -619 0
-187 -619 0
91 187 619 0
c gate 620 -618 -619 0
-618 -620 0
-619 -620 0
618 619 620 0
c gate 621 91 187 0
91 -621 0
187 -621 0
-91 -187 621 0
c gate 622 94 190 0
94 -622 0
190 -622 0
-94 -190 622 0
c gate 623 -621 -622 0
-621 -623 0
-622 -623 0
621 622 623 0
c gate 624 620 623 0
620 -624 0
623 -624 0
-620 -623 624 0
c gate 625 607 624 0
607 -625 0
624 -625 0
-607 -624 625 0
c gate 626 603 625 0
603 -626 0
625 -626 0
-603 -625 626 0
c gate 627 594 597 0
594 -627 0
597 -627 0
-594 -597 627 0
c gate 628 591 610 0
591 -628 0
610 -628 0
-591 -610 628 0
c gate 629 627 628 0
627 -629 0
628 -629 0
-627 -628 629 0
c gate 630 -94 -190 0
-94 -630 0
-190 -630 0
94 190 630 0
c gate 631 90 186 0
90 -631 0
186 -631 0
-90 -186 631 0
c gate 632 -630 -631 0
-630 -632 0
-631 -632 0
630 631 632 0
c gate 633 93 189 0
93 -633 0
189 -633 0
-93 -189 633 0
c gate 634 -92 -188 0
-92 -634 0
-188 -634 0
92 188 634 0
c gate 635 -633 -634 0
-633 -635 0
-634 -635 0
633 634 635 0
c gate 636 632 635 0
632 -636 0
635 -636 0
-632 -635 636 0
c gate 637 96 -192 0
96 -637 0
-192 -637 0
-96 192 637 0
c gate 638 -96 192 0
-96 -638 0
192 -638 0
96 -192 638 0
c gate 639 -637 -638 0
-637 -639 0
-638 -639 0
637 638 639 0
c gate 640 -95 -191 0
-95 -640 0
-191 -640 0
95 191 640 0
c gate 641 89 185 0
89 -641 0
185 -641 0
-89 -185 641 0
c gate 642 -640 -641 0
-640 -642 0
-641 -642 0
640 641 642 0
c gate 643 -639 642 0
-639 -643 0
642 -643 0
639 -642 643 0
c gate 644 636 643 0
636 -644 0
643 -644 0
-636 -643 644 0
c gate 645 -90 -186 0
-90 -645 0
-186 -645 0
90 186 645 0
c gate 646 -81 -177 0
-81 -646 0
-177 -646 0
81 177 646 0
c gate 647 -645 -646 0
-645 -647 0
-646 -647 0
645 646 647 0
c gate 648 -588 -598 0
-588 -648 0
-598 -648 0
588 598 648 0
c gate 649 647 648 0
647 -649 0
648 -649 0
-647 -648 649 0
c gate 650 92 188 0
92 -650 0
188 -650 0
-92 -188 650 0
c gate 651 -93 -189 0
-93 -651 0
-189 -651 0
93 189 651 0
c gate 652 -650 -651 0
-650 -652 0
-651 -652 0
650 651 652 0
c gate 653 -80 -176 0
-80 -653 0
-176 -653 0
80 176 653 0
c gate 654 -89 -185 0
-89 -654 0
-185 -654 0
89 185 654 0
c gate 655 -653 -654 0
-653 -655 0
-654 -655 0
653 654 655 0
c gate 656 652 655 0
652 -656 0
655 -656 0
-652 -655 656 0
c gate 657 649 656 0
649 -657 0
656 -657 0
-649 -656 657 0
c gate 658 644 657 0
644 -658 0
657 -658 0
-644 -657 658 0
c gate 659 629 658 0
629 -659 0
658 -659 0
-629 -658 659 0
c gate 660 626 659 0
626 -660 0
659 -660 0
-626 -659 660 0
c gate 661 -617 660 0
-617 -661 0
660 -661 0
617 -660 661 0
c gate 662 -587 661 0
-587 -662 0
661 -662 0
587 -661 662 0
c PO
662 0
